\ LP format - for model browsing. Use MPS format to capture full model detail.
Minimize
  27 x[0] + 12.1 x[1] + 17.7 x[2] + 11 x[3] + 29.2 x[4] + 22.4 x[5]
   + 16.8 x[6] + 11.2 x[7] + 29.2 x[8] + 11 x[9] + 31.8 x[10] + 6 x[11]
   + 12.5 x[12] + 17.1 x[13] + 27.9 x[14] + 18 x[15] + 11.7 x[16]
   + 30 x[17] + 27 x[18] + 33.2 x[19] + 40.2 x[20]
Subject To
 R0: x[0] + x[1] + x[2] + x[3] + x[4] + x[5] = 2
 R1: x[0] + x[6] + x[7] + x[8] + x[9] + x[10] = 2
 R2: x[1] + x[6] + x[11] + x[12] + x[13] + x[14] = 2
 R3: x[2] + x[7] + x[11] + x[15] + x[16] + x[17] = 2
 R4: x[3] + x[8] + x[12] + x[15] + x[18] + x[19] = 2
 R5: x[4] + x[9] + x[13] + x[16] + x[18] + x[20] = 2
 R6: x[5] + x[10] + x[14] + x[17] + x[19] + x[20] = 2
Bounds
 x[0] <= 1
 x[1] <= 1
 x[2] <= 1
 x[3] <= 1
 x[4] <= 1
 x[5] <= 1
 x[6] <= 1
 x[7] <= 1
 x[8] <= 1
 x[9] <= 1
 x[10] <= 1
 x[11] <= 1
 x[12] <= 1
 x[13] <= 1
 x[14] <= 1
 x[15] <= 1
 x[16] <= 1
 x[17] <= 1
 x[18] <= 1
 x[19] <= 1
 x[20] <= 1
End
